# Solution for model GasLib-40
# Objective value = 1.0302982947665425e+01
loadshed[innode_1] 0
loadshed[innode_2] 0
loadshed[innode_3] 0
loadshed[innode_4] 0
loadshed[innode_5] 0
loadshed[innode_6] 0
loadshed[innode_7] 0
loadshed[innode_8] 0
loadshed[source_1] -2.5587230918464732e-01
loadshed[source_2] -8.1883556957748516e-02
loadshed[source_3] 4.0292738138339024e-01
loadshed[sink_1] 0
loadshed[sink_2] 0
loadshed[sink_3] 0
loadshed[sink_4] 0
loadshed[sink_5] 0
loadshed[sink_6] 0
loadshed[sink_7] 0
loadshed[sink_8] 0
loadshed[sink_9] 0
loadshed[sink_10] 0
loadshed[sink_11] 0
loadshed[sink_12] 6.2999131399737629e-01
loadshed[sink_13] 0
loadshed[sink_14] 0
loadshed[sink_15] 0
loadshed[sink_16] 0
loadshed[sink_17] 0
loadshed[sink_18] 0
loadshed[sink_19] 0
loadshed[sink_20] 0
loadshed[sink_21] 0
loadshed[sink_22] 0
loadshed[sink_23] 0
loadshed[sink_24] 0
loadshed[sink_25] 0
loadshed[sink_26] 0
loadshed[sink_27] 0
loadshed[sink_28] 0
loadshed[sink_29] 0
flow[source_1,sink_3] 1.9854120221242010e+02
flow[innode_1,sink_16] 1.6354166666666970e+01
flow[innode_6,sink_13] 2.0087790536075225e+01
flow[sink_13,sink_14] 3.7336238694085573e+00
flow[sink_14,sink_10] -1.2620542797258111e+01
flow[sink_25,sink_26] 1.7175787215232981e+02
flow[sink_26,sink_9] 1.2201595336160861e+02
flow[sink_9,sink_18] 1.0566178669494194e+02
flow[sink_26,sink_4] 33.3877521240546
flow[sink_4,sink_20] -1.7212820415754777e+01
flow[sink_18,sink_6] 8.9307620028275267e+01
flow[sink_25,innode_8] -1.6583286887908378e+02
flow[sink_6,sink_7] 4.0245120028274869e+01
flow[sink_6,sink_22] 3.2708333333333641e+01
flow[sink_7,sink_24] 3.8759517052334580e+01
flow[sink_22,sink_1] 1.6354166666666970e+01
flow[sink_24,sink_21] 2.2405350385667909e+01
flow[sink_21,sink_12] 6.0511837190012416e+00
flow[sink_7,sink_5] -1.4868563690726091e+01
flow[sink_5,sink_17] -3.1222730357392720e+01
flow[sink_17,sink_4] -3.4246405873142635e+01
flow[sink_17,sink_8] -13.3304911509166
flow[sink_3,sink_23] 16.3541666666697
flow[sink_8,sink_20] -2.9684657817583286e+01
flow[sink_25,sink_20] 6.3251644900004635e+01
flow[sink_25,sink_15] -1.0561860537599284e+02
flow[sink_15,sink_29] -6.7403742166158793e+01
flow[sink_29,sink_28] 1.6354166666667879e+01
flow[sink_29,sink_2] 7.0923196543167478e+01
flow[sink_2,sink_15] 5.4569029876500736e+01
flow[sink_29,innode_7] -1.7103527204266072e+02
flow[innode_4,sink_19] 7.8037209463925308e+01
flow[sink_19,innode_3] 6.1683042797258395e+01
flow[innode_4,innode_5] 1.6354166666679703e+01
flow[sink_27,innode_5] -1.6354166666679703e+01
flow[sink_27,sink_19] 0
flow[sink_10,sink_11] 3.2708333333333641e+01
flow[sink_10,innode_2] 0
flow[sink_10,innode_3] -6.1683042797258395e+01
flow[innode_6,sink_25] -2.0087790536075225e+01
flow[sink_11,innode_1] 1.6354166666666970e+01
flow[sink_19,innode_2] 0
flow[source_3,innode_4] 9.4391376130605011e+01
flow[source_2,innode_7] 1.7103527204266072e+02
flow[sink_3,innode_8] 1.6583286887908378e+02
pressure[innode_1] 7.4279463259201307e+01
pressure[innode_2] 7.7851763804673382e+01
pressure[innode_3] 7.7715173691245710e+01
pressure[innode_4] 81.01325
pressure[innode_5] 8.1002000741808772e+01
pressure[innode_6] 7.3951652883771686e+01
pressure[innode_7] 81.01325
pressure[innode_8] 8.0349602606492226e+01
pressure[source_1] 81.01325
pressure[source_2] 81.01325
pressure[source_3] 81.01325
pressure[sink_1] 4.6242861754908617e+01
pressure[sink_2] 7.4642161892646754e+01
pressure[sink_3] 8.0349602606492226e+01
pressure[sink_4] 5.7609841599475345e+01
pressure[sink_5] 5.3975189163787988e+01
pressure[sink_6] 4.8343939365295988e+01
pressure[sink_7] 4.7791469797154818e+01
pressure[sink_8] 5.6804050953925056e+01
pressure[sink_9] 5.4551877092688557e+01
pressure[sink_10] 7.4431164566804853e+01
pressure[sink_11] 7.4279463259201307e+01
pressure[sink_12] 1.0132499999999998e+00
pressure[sink_13] 7.3840912251527953e+01
pressure[sink_14] 7.3834230613579223e+01
pressure[sink_15] 7.4464006036920452e+01
pressure[sink_16] 7.3257813424383627e+01
pressure[sink_17] 5.6301056891036566e+01
pressure[sink_18] 5.0728718723779949e+01
pressure[sink_19] 7.7851763804673382e+01
pressure[sink_20] 5.8872654140421943e+01
pressure[sink_21] 3.1665923497956108e+00
pressure[sink_22] 4.7306630897263631e+01
pressure[sink_23] 8.0184884594832425e+01
pressure[sink_24] 3.4147107882636840e+00
pressure[sink_25] 7.3951652883771686e+01
pressure[sink_26] 61.8548468158877
pressure[sink_27] 8.0866291377726043e+01
pressure[sink_28] 7.6143444229150077e+01
pressure[sink_29] 7.6438726502767253e+01
interdiction[source_1,sink_3] 0
interdiction[innode_1,sink_16] 0
interdiction[innode_6,sink_13] 0
interdiction[sink_13,sink_14] 0
interdiction[sink_14,sink_10] 0
interdiction[sink_25,sink_26] 0
interdiction[sink_26,sink_9] 0
interdiction[sink_9,sink_18] 0
interdiction[sink_26,sink_4] 0
interdiction[sink_4,sink_20] 0
interdiction[sink_18,sink_6] 0
interdiction[sink_25,innode_8] 0
interdiction[sink_6,sink_7] 0
interdiction[sink_6,sink_22] 0
interdiction[sink_7,sink_24] 0
interdiction[sink_22,sink_1] 0
interdiction[sink_24,sink_21] 0
interdiction[sink_21,sink_12] 0
interdiction[sink_7,sink_5] 0
interdiction[sink_5,sink_17] 0
interdiction[sink_17,sink_4] 0
interdiction[sink_17,sink_8] 0
interdiction[sink_3,sink_23] 0
interdiction[sink_8,sink_20] 0
interdiction[sink_25,sink_20] 0
interdiction[sink_25,sink_15] 0
interdiction[sink_15,sink_29] 0
interdiction[sink_29,sink_28] 0
interdiction[sink_29,sink_2] 0
interdiction[sink_2,sink_15] 0
interdiction[sink_29,innode_7] 0
interdiction[innode_4,sink_19] 0
interdiction[sink_19,innode_3] 0
interdiction[innode_4,innode_5] 0
interdiction[sink_27,innode_5] 0
interdiction[sink_27,sink_19] 1
interdiction[sink_10,sink_11] 0
interdiction[sink_10,innode_2] 1
interdiction[sink_10,innode_3] 0
interdiction[innode_6,sink_25] 0
interdiction[sink_11,innode_1] 0
interdiction[sink_19,innode_2] 0
interdiction[source_3,innode_4] 0
interdiction[source_2,innode_7] 0
interdiction[sink_3,innode_8] 0
WCcheckFlow[source_1,sink_3] 39
WCcheckFlow[innode_1,sink_16] 1
WCcheckFlow[innode_6,sink_13] 13
WCcheckFlow[sink_13,sink_14] 12
WCcheckFlow[sink_14,sink_10] 11
WCcheckFlow[sink_25,sink_26] 15
WCcheckFlow[sink_26,sink_9] 12
WCcheckFlow[sink_9,sink_18] 11
WCcheckFlow[sink_26,sink_4] 2
WCcheckFlow[sink_4,sink_20] 1
WCcheckFlow[sink_18,sink_6] 10
WCcheckFlow[sink_25,innode_8] -36
WCcheckFlow[sink_6,sink_7] 7
WCcheckFlow[sink_6,sink_22] 2
WCcheckFlow[sink_7,sink_24] 3
WCcheckFlow[sink_22,sink_1] 1
WCcheckFlow[sink_24,sink_21] 2
WCcheckFlow[sink_21,sink_12] 1
WCcheckFlow[sink_7,sink_5] 3
WCcheckFlow[sink_5,sink_17] 2
WCcheckFlow[sink_17,sink_4] 0
WCcheckFlow[sink_17,sink_8] 1
WCcheckFlow[sink_3,sink_23] 1
WCcheckFlow[sink_8,sink_20] 0
WCcheckFlow[sink_25,sink_20] 0
WCcheckFlow[sink_25,sink_15] 6
WCcheckFlow[sink_15,sink_29] 5
WCcheckFlow[sink_29,sink_28] 1
WCcheckFlow[sink_29,sink_2] 1
WCcheckFlow[sink_2,sink_15] 0
WCcheckFlow[sink_29,innode_7] 2
WCcheckFlow[innode_4,sink_19] -4
WCcheckFlow[sink_19,innode_3] -6
WCcheckFlow[innode_4,innode_5] 2
WCcheckFlow[sink_27,innode_5] -1
WCcheckFlow[sink_27,sink_19] 0
WCcheckFlow[sink_10,sink_11] 3
WCcheckFlow[sink_10,innode_2] 0
WCcheckFlow[sink_10,innode_3] 7
WCcheckFlow[innode_6,sink_25] -14
WCcheckFlow[sink_11,innode_1] 2
WCcheckFlow[sink_19,innode_2] 1
WCcheckFlow[source_3,innode_4] -1
WCcheckFlow[source_2,innode_7] -1
WCcheckFlow[sink_3,innode_8] 37
